
Gurobi 9.5.0 (linux64) logging started Tue Nov  7 19:23:37 2023

Set parameter LogFile to value "/lustre1/scratch/348/vsc34888/JointResearch/05.Models/06.Benchmarking/F.Representative_days_based_on_Line_Benefit_NN_OC_fy_1/RTS24_ByStages_nc70/openStarNet_RTS24_ByStages_nc70.log"
Set parameter Method to value 2
Set parameter MIPFocus to value 1
Set parameter Presolve to value 2
Set parameter RINS to value 100
Set parameter MIPGap to value 0.01
Set parameter Threads to value 36
Set parameter TimeLimit to value 604800
Set parameter IterationLimit to value 760000000
Gurobi Optimizer version 9.5.0 build v9.5.0rc5 (linux64)
Thread count: 36 physical cores, 36 logical processors, using up to 36 threads
Optimize a model with 31153 rows, 17864 columns and 85473 nonzeros
Model fingerprint: 0x48bbc6bf
Variable types: 17825 continuous, 39 integer (39 binary)
Coefficient statistics:
  Matrix range     [5e-03, 2e+03]
  Objective range  [1e+00, 1e+00]
  Bounds range     [4e-04, 3e+00]
  RHS range        [4e-04, 3e+00]
Presolve removed 15193 rows and 7606 columns
Presolve time: 0.15s
Presolved: 15960 rows, 10258 columns, 55509 nonzeros
Variable types: 10219 continuous, 39 integer (39 binary)
Found heuristic solution: objective 161.5351172
Root relaxation presolved: 15960 rows, 10258 columns, 55509 nonzeros

Root barrier log...

Ordering time: 0.01s

Barrier statistics:
 Dense cols : 39
 AA' NZ     : 1.181e+05
 Factor NZ  : 3.959e+05 (roughly 14 MB of memory)
 Factor Ops : 1.247e+07 (less than 1 second per iteration)
 Threads    : 36

                  Objective                Residual
Iter       Primal          Dual         Primal    Dual     Compl     Time
   0   6.12806436e+05 -1.06789505e+08  4.40e+00 3.08e+02  9.39e+03     0s
   1   7.31585454e+04 -2.85857010e+07  3.96e-01 3.25e-09  1.19e+03     0s
   2   2.57982765e+04 -3.16358059e+06  1.28e-02 2.29e-09  1.01e+02     0s
   3   1.63400632e+04 -1.64771553e+05  3.64e-13 1.14e-10  5.59e+00     0s
   4   2.82644647e+03 -2.78096811e+04  4.04e-13 1.38e-11  9.45e-01     0s
   5   1.07012718e+03 -7.43995768e+03  3.57e-13 3.49e-12  2.63e-01     0s
   6   4.70200238e+02 -2.16665166e+03  2.21e-13 1.82e-12  8.13e-02     0s
   7   3.06380236e+02 -7.87088065e+02  2.40e-13 9.09e-13  3.37e-02     0s
   8   1.94770559e+02 -2.18904314e+02  2.45e-13 9.09e-13  1.28e-02     0s
   9   1.38925931e+02 -2.86588525e+01  3.02e-13 9.09e-13  5.17e-03     0s
  10   1.09463423e+02  6.44455580e+01  2.42e-13 9.09e-13  1.39e-03     1s
  11   9.88016461e+01  8.59920296e+01  1.14e-12 1.82e-12  3.95e-04     1s
  12   9.75174003e+01  9.17514330e+01  2.48e-12 1.82e-12  1.78e-04     1s
  13   9.55497995e+01  9.29098157e+01  7.35e-12 9.09e-13  8.14e-05     1s
  14   9.49211657e+01  9.34786194e+01  5.61e-12 9.09e-13  4.45e-05     1s
  15   9.46827460e+01  9.37424433e+01  8.03e-12 9.09e-13  2.90e-05     1s
  16   9.45341732e+01  9.39875610e+01  1.27e-11 1.82e-12  1.69e-05     1s
  17   9.44077902e+01  9.41652097e+01  1.52e-11 1.82e-12  7.48e-06     1s
  18   9.42630172e+01  9.42253403e+01  2.28e-11 1.82e-12  1.16e-06     1s
  19   9.42385657e+01  9.42332236e+01  2.21e-11 1.82e-12  1.65e-07     1s
  20   9.42376985e+01  9.42368213e+01  1.21e-11 1.82e-12  2.71e-08     1s
  21   9.42372491e+01  9.42372213e+01  6.35e-11 9.09e-13  8.56e-10     1s
  22   9.42372459e+01  9.42372459e+01  1.54e-11 2.73e-12  8.57e-13     1s

Barrier solved model in 22 iterations and 0.65 seconds (0.51 work units)
Optimal objective 9.42372459e+01


Root relaxation: objective 9.423725e+01, 1339 iterations, 0.44 seconds (0.25 work units)

    Nodes    |    Current Node    |     Objective Bounds      |     Work
 Expl Unexpl |  Obj  Depth IntInf | Incumbent    BestBd   Gap | It/Node Time

     0     0   94.23725    0   13  161.53512   94.23725  41.7%     -    0s
H    0     0                     128.5970786   94.23725  26.7%     -    1s
H    0     0                     111.3107933   96.41805  13.4%     -    1s
     0     0   96.41805    0   12  111.31079   96.41805  13.4%     -    1s
     0     0   96.50376    0   12  111.31079   96.50376  13.3%     -    1s
     0     0   96.55922    0   12  111.31079   96.55922  13.3%     -    1s
     0     0   96.55930    0   12  111.31079   96.55930  13.3%     -    1s
     0     0   97.53408    0    9  111.31079   97.53408  12.4%     -    2s
     0     0   97.56067    0    9  111.31079   97.56067  12.4%     -    2s
     0     0   97.59490    0   10  111.31079   97.59490  12.3%     -    2s
     0     0   97.60789    0    9  111.31079   97.60789  12.3%     -    2s
     0     0   97.60839    0    9  111.31079   97.60839  12.3%     -    2s
     0     0   97.63327    0    9  111.31079   97.63327  12.3%     -    3s
     0     0   97.63369    0   10  111.31079   97.63369  12.3%     -    3s
     0     0   97.63369    0   10  111.31079   97.63369  12.3%     -    3s
     0     0   97.63538    0    9  111.31079   97.63538  12.3%     -    3s
H    0     0                     105.6032818   97.63538  7.55%     -    6s
     0     2   97.63538    0    9  105.60328   97.63538  7.55%     -    6s

Cutting planes:
  Gomory: 6
  Implied bound: 2
  MIR: 424
  Relax-and-lift: 2

Explored 155 nodes (38411 simplex iterations) in 8.62 seconds (9.52 work units)
Thread count was 36 (of 36 available processors)

Solution count 4: 105.603 111.311 128.597 161.535 

Optimal solution found (tolerance 1.00e-02)
Best objective 1.056032817886e+02, best bound 1.056032817886e+02, gap 0.0000%

Gurobi 9.5.0 (linux64) logging started Tue Nov  7 19:23:49 2023

Set parameter LogFile to value "/lustre1/scratch/348/vsc34888/JointResearch/05.Models/06.Benchmarking/F.Representative_days_based_on_Line_Benefit_NN_OC_fy_1/RTS24_ByStages_nc70/openStarNet_RTS24_ByStages_nc70.log"
Set parameter Method to value 2
Set parameter MIPFocus to value 1
Set parameter Presolve to value 2
Set parameter RINS to value 100
Set parameter MIPGap to value 0.01
Set parameter Threads to value 36
Set parameter TimeLimit to value 604800
Set parameter IterationLimit to value 760000000
No parameters matching 'relax_integrality' found
Gurobi Optimizer version 9.5.0 build v9.5.0rc5 (linux64)
Thread count: 36 physical cores, 36 logical processors, using up to 36 threads
Optimize a model with 31153 rows, 17825 columns and 74514 nonzeros
Model fingerprint: 0x74deceeb
Coefficient statistics:
  Matrix range     [5e-03, 2e+03]
  Objective range  [1e+00, 1e+00]
  Bounds range     [4e-04, 3e+00]
  RHS range        [4e-04, 3e+01]
Presolve removed 24645 rows and 8310 columns
Presolve time: 0.03s
Presolved: 6508 rows, 9655 columns, 23931 nonzeros

Ordering time: 0.00s

Barrier statistics:
 AA' NZ     : 1.677e+04
 Factor NZ  : 7.178e+04 (roughly 6 MB of memory)
 Factor Ops : 1.097e+06 (less than 1 second per iteration)
 Threads    : 36

                  Objective                Residual
Iter       Primal          Dual         Primal    Dual     Compl     Time
   0   1.13063411e+06 -6.62730661e+08  3.66e+00 8.05e+02  7.76e+04     0s
   1   1.03167786e+05 -1.08684183e+08  2.86e-01 5.95e-11  8.28e+03     0s
   2   4.65606720e+04 -1.36426400e+07  7.69e-02 5.35e-11  9.61e+02     0s
   3   2.79789126e+04 -1.30538669e+06  1.45e-03 4.37e-11  8.09e+01     0s
   4   1.74930309e+04 -9.87355710e+04  9.12e-13 5.72e-11  7.01e+00     0s
   5   7.86338947e+03 -2.70368372e+04  4.61e-13 1.46e-11  2.10e+00     0s
   6   2.37749624e+03 -9.56082123e+03  2.08e-13 1.46e-11  7.20e-01     0s
   7   8.43958664e+02 -2.45920545e+03  1.82e-13 7.28e-12  1.99e-01     0s
   8   4.44089628e+02 -8.31311041e+02  6.79e-13 3.64e-12  7.69e-02     0s
   9   2.45980645e+02 -2.97185505e+02  7.69e-13 1.46e-11  3.28e-02     0s
  10   1.68532701e+02 -1.28472720e+00  1.46e-12 1.46e-11  1.02e-02     0s
  11   1.27578884e+02  6.27716341e+01  2.44e-12 1.46e-11  3.91e-03     0s
  12   1.15421463e+02  8.73585302e+01  3.83e-12 3.64e-12  1.69e-03     0s
  13   1.09881836e+02  1.00324724e+02  3.91e-12 7.28e-12  5.76e-04     0s
  14   1.06837949e+02  1.03813134e+02  7.17e-12 7.28e-12  1.82e-04     0s
  15   1.05908852e+02  1.05013493e+02  1.89e-11 2.91e-11  5.40e-05     0s
  16   1.05620019e+02  1.05559454e+02  9.93e-12 2.18e-11  3.65e-06     0s
  17   1.05605801e+02  1.05590258e+02  1.72e-11 1.46e-11  9.37e-07     0s
  18   1.05603423e+02  1.05602025e+02  1.89e-11 1.46e-11  8.43e-08     0s
  19   1.05603283e+02  1.05603277e+02  3.11e-11 1.46e-11  4.09e-10     0s
  20   1.05603282e+02  1.05603282e+02  5.71e-12 1.46e-11  4.09e-13     0s

Barrier solved model in 20 iterations and 0.15 seconds (0.10 work units)
Optimal objective 1.05603282e+02

Crossover log...

     894 DPushes remaining with DInf 0.0000000e+00                 0s
       0 DPushes remaining with DInf 0.0000000e+00                 0s

     373 PPushes remaining with PInf 0.0000000e+00                 0s
       0 PPushes remaining with PInf 0.0000000e+00                 0s

  Push phase complete: Pinf 0.0000000e+00, Dinf 3.4892890e-12      0s

Iteration    Objective       Primal Inf.    Dual Inf.      Time
     474    1.0560328e+02   0.000000e+00   0.000000e+00      0s

Use crossover to convert LP symmetric solution to basic solution...
Crossover log...

       0 DPushes remaining with DInf 0.0000000e+00                 0s

     260 PPushes remaining with PInf 0.0000000e+00                 0s
       0 PPushes remaining with PInf 0.0000000e+00                 0s

  Push phase complete: Pinf 0.0000000e+00, Dinf 1.7758128e-12      0s

Iteration    Objective       Primal Inf.    Dual Inf.      Time
     761    1.0560328e+02   0.000000e+00   0.000000e+00      0s

Solved in 761 iterations and 0.23 seconds (0.13 work units)
Optimal objective  1.056032818e+02
